\ENCODING=ISO-8859-1
\Problem name: IloCplex

Minimize
 obj1: - 1042 x1 - 873 x2 - 2257 x3 - 1445 x4 - 2217 x5 - 1392 x6 - 1415 x7
       - 1412 x8 - 737 x9 - 2172 x10
Subject To
 c1: 13 x1 + 5 x2 + 5 x3 + 9 x4 + 10 x5 + 11 x6 + 14 x7 + 15 x8 + 12 x9
     + 10 x10 <= 52
Bounds
 0 <= x1 <= 1
 0 <= x2 <= 1
 0 <= x3 <= 1
 0 <= x4 <= 1
 0 <= x5 <= 1
 0 <= x6 <= 1
 0 <= x7 <= 1
 0 <= x8 <= 1
 0 <= x9 <= 1
 0 <= x10 <= 1
End
